
  32    4
  10   10   10   10

   0   0   0   0   0   1 2 
   9   1   1   1   0   2 6 3 
  10   0   6   4   1   1 4 
  10   2   3   0   3   1 5 
   9   4   0   2   2   2 11 7 
   6   4   2   0   2   2 11 7 
   3   0   2   3   2   2 10 8 
   1   4   0   5   5   1 9 
   4   1   5   1   0   3 18 15 12 
   5   6   6   4   0   3 18 15 13 
  10   5   0   7   6   2 15 13 
   3   2   4   5   0   1 13 
   2   5   6   0   5   1 14 
   2   0   2   5   4   1 16 
   4   0   3   6   3   1 16 
   6   4   7   0   5   2 19 17 
   9   4   0   2   3   1 20 
   3   3   7   0   5   1 19 
   1   5   0   4   8   1 21 
   2   7   0   1   4   1 21 
   2   3   4   0   6   2 24 22 
   7   0   5   6   6   1 23 
   9   0   4   4   3   2 27 25 
   8   5   0   5   4   2 27 25 
   7  10   0   4   3   1 26 
   1   3   1   6   0   1 28 
   7   6   0   5   4   1 29 
   7   4   6   0   7   1 30 
   3   3   0   3   2   1 30 
   8   0   3   5   2   1 31 
   3   1   3   0   5   1 32
   0   0   0   0   0   0 
